projected/problems_b25_r0_d7_m100_s666/_DIMACS/b25_d7_r0_s666_044.cnf
p cnf 239 385 25
c p show 1 2 3 4 5 6 7 8 9 10 11 12 13 14 15 16 17 18 19 20 21 22 23 24 25
-26 10 -6 0
-27 -20 -14 0
-28 27 26 0
-29 18 0
-29 -17 0
-30 23 -19 0
-31 30 0
-31 29 0
-32 31 0
-32 28 0
-33 1 0
-33 21 0
-34 -3 0
-34 9 0
-35 34 0
-35 33 0
-36 -24 0
-36 -16 0
-37 -1 0
-37 5 0
-38 37 36 0
-39 1 -5 0
-40 24 16 0
-41 40 39 0
-42 41 0
-42 38 0
-43 42 0
-43 35 0
-44 43 0
-44 32 0
-45 -23 0
-45 20 0
-46 -16 18 0
-47 46 0
-47 45 0
-48 16 0
-48 -18 0
-49 23 -20 0
-50 49 0
-50 48 0
-51 50 47 0
-52 -8 -11 0
-53 -10 0
-53 -25 0
-54 53 52 0
-55 54 51 0
-56 22 0
-56 23 0
-57 1 -13 0
-58 57 0
-58 56 0
-59 6 0
-59 -21 0
-60 21 0
-60 -6 0
-61 60 59 0
-62 -23 0
-62 5 0
-63 62 0
-63 61 0
-64 63 0
-64 58 0
-65 64 55 0
-66 -22 -23 0
-67 -1 0
-67 13 0
-68 67 66 0
-69 -6 21 0
-70 -21 6 0
-71 70 0
-71 69 0
-72 23 -5 0
-73 72 71 0
-74 73 68 0
-75 48 49 0
-76 45 46 0
-77 76 0
-77 75 0
-78 8 0
-78 11 0
-79 10 25 0
-80 79 0
-80 78 0
-81 80 0
-81 77 0
-82 81 74 0
-83 82 0
-83 65 0
-84 83 0
-84 44 0
-85 16 6 0
-86 -5 0
-86 16 0
-87 -16 0
-87 5 0
-88 87 86 0
-89 88 85 0
-90 5 -16 0
-91 16 -5 0
-92 91 0
-92 90 0
-93 -16 0
-93 -6 0
-94 93 92 0
-95 94 0
-95 89 0
-96 11 0
-96 13 0
-97 -1 0
-97 -9 0
-98 97 0
-98 96 0
-99 98 95 0
-100 -3 8 0
-101 -15 0
-101 -1 0
-102 1 0
-102 15 0
-103 102 101 0
-104 103 100 0
-105 -20 0
-105 -14 0
-106 19 0
-106 -3 0
-107 3 0
-107 -19 0
-108 107 106 0
-109 108 105 0
-110 109 0
-110 104 0
-111 110 0
-111 99 0
-112 -19 0
-112 -9 0
-113 62 0
-113 112 0
-114 12 0
-114 3 0
-115 -23 0
-115 4 0
-116 115 0
-116 114 0
-117 23 -4 0
-118 -12 -3 0
-119 118 0
-119 117 0
-120 119 116 0
-121 120 0
-121 113 0
-122 21 -8 0
-123 25 5 0
-124 123 122 0
-125 -25 0
-125 -5 0
-126 -21 0
-126 8 0
-127 126 125 0
-128 127 0
-128 124 0
-129 9 -18 0
-130 -2 0
-130 -16 0
-131 130 129 0
-132 2 16 0
-133 -9 0
-133 18 0
-134 133 132 0
-135 134 0
-135 131 0
-136 135 128 0
-137 136 0
-137 121 0
-138 137 111 0
-139 138 0
-139 84 0
-140 21 18 0
-141 10 0
-141 18 0
-142 -18 0
-142 -10 0
-143 142 141 0
-144 143 140 0
-145 23 0
-145 2 0
-146 15 -23 0
-147 23 -15 0
-148 147 0
-148 146 0
-149 148 145 0
-150 149 0
-150 144 0
-151 -21 -17 0
-152 22 -5 0
-153 152 0
-153 151 0
-154 -11 4 0
-155 4 -10 0
-156 155 0
-156 154 0
-157 156 153 0
-158 157 0
-158 150 0
-159 21 0
-159 17 0
-160 -22 0
-160 5 0
-161 160 159 0
-162 11 0
-162 -4 0
-163 -4 0
-163 10 0
-164 163 162 0
-165 164 0
-165 161 0
-166 -21 0
-166 -18 0
-167 -10 -18 0
-168 18 10 0
-169 168 0
-169 167 0
-170 169 0
-170 166 0
-171 -23 -2 0
-172 -15 0
-172 23 0
-173 -23 0
-173 15 0
-174 173 172 0
-175 174 0
-175 171 0
-176 175 170 0
-177 176 0
-177 165 0
-178 177 158 0
-179 10 -1 0
-180 -7 0
-180 5 0
-181 180 179 0
-182 7 -5 0
-183 -10 0
-183 1 0
-184 183 182 0
-185 184 0
-185 181 0
-186 4 -23 0
-187 -15 0
-187 3 0
-188 -3 0
-188 15 0
-189 188 187 0
-190 189 0
-190 186 0
-191 190 0
-191 185 0
-192 25 -9 0
-193 -17 -2 0
-194 193 192 0
-195 -25 -17 0
-196 17 25 0
-197 196 0
-197 195 0
-198 -12 0
-198 -6 0
-199 198 197 0
-200 12 6 0
-201 25 0
-201 17 0
-202 -17 0
-202 -25 0
-203 202 201 0
-204 203 200 0
-205 204 0
-205 199 0
-206 205 194 0
-207 206 191 0
-208 207 0
-208 178 0
-209 -23 0
-209 12 0
-210 -2 0
-210 -3 0
-211 210 0
-211 209 0
-212 23 20 0
-213 -10 0
-213 4 0
-214 213 212 0
-215 214 211 0
-216 16 0
-216 18 0
-217 -22 0
-217 7 0
-218 217 216 0
-219 1 0
-219 -10 0
-220 6 0
-220 -18 0
-221 220 0
-221 219 0
-222 221 218 0
-223 222 215 0
-224 7 13 0
-225 3 -13 0
-226 225 224 0
-227 -20 0
-227 -1 0
-228 227 193 0
-229 228 226 0
-230 23 -10 0
-231 17 20 0
-232 231 0
-232 230 0
-233 2 0
-233 -22 0
-234 20 24 0
-235 234 233 0
-236 235 232 0
-237 236 229 0
-238 237 0
-238 223 0
-239 238 0
-239 208 0
239 0
139 0
-39 -37 0
-40 -36 0
-36 -40 0
-66 -56 0
-56 -66 0
-57 -67 0
-58 -68 0
-68 -58 0
-71 -61 0
-72 -62 0
-73 -63 0
-74 -64 0
-46 -48 0
-45 -49 0
-49 -45 0
-77 -51 0
-78 -52 0
-52 -78 0
-79 -53 0
-53 -79 0
-54 -80 0
-80 -54 0
-81 -55 0
-55 -81 0
-92 -88 0
-85 -93 0
-115 -117 0
-118 -114 0
-123 -125 0
-125 -123 0
-122 -126 0
-130 -132 0
-132 -130 0
-133 -129 0
-129 -133 0
-151 -159 0
-159 -151 0
-160 -152 0
-161 -153 0
-153 -161 0
-162 -154 0
-155 -163 0
-163 -155 0
-164 -156 0
-156 -164 0
-157 -165 0
-166 -140 0
-169 -143 0
-170 -144 0
-171 -145 0
-145 -171 0
-148 -174 0
-149 -175 0
-175 -149 0
-176 -150 0
-180 -182 0
-182 -180 0
-179 -183 0
-198 -200 0
-200 -198 0
-197 -203 0
