projected/problems_b25_r0_d7_m100_s666/b25_d7_r0_s666_044.smt2
(set-logic QF_UF)
(declare-fun A0 () Bool)
(declare-fun A1 () Bool)
(declare-fun A2 () Bool)
(declare-fun A3 () Bool)
(declare-fun A4 () Bool)
(declare-fun A5 () Bool)
(declare-fun A6 () Bool)
(declare-fun A7 () Bool)
(declare-fun A8 () Bool)
(declare-fun A9 () Bool)
(declare-fun A10 () Bool)
(declare-fun A11 () Bool)
(declare-fun A12 () Bool)
(declare-fun A13 () Bool)
(declare-fun A14 () Bool)
(declare-fun A15 () Bool)
(declare-fun A16 () Bool)
(declare-fun A17 () Bool)
(declare-fun A18 () Bool)
(declare-fun A19 () Bool)
(declare-fun A20 () Bool)
(declare-fun A21 () Bool)
(declare-fun A22 () Bool)
(declare-fun A23 () Bool)
(declare-fun A24 () Bool)
(assert (let ((.def_0 (not A9))) (let ((.def_1 (and .def_0 A5))) (let ((.def_2 (and A19 A13))) (let ((.def_3 (and .def_2 .def_1))) (let ((.def_4 (not .def_3))) (let ((.def_5 (not A17))) (let ((.def_6 (or .def_5 A16))) (let ((.def_7 (not .def_6))) (let ((.def_8 (not A22))) (let ((.def_9 (and .def_8 A18))) (let ((.def_10 (not .def_9))) (let ((.def_11 (and .def_10 .def_7))) (let ((.def_12 (and .def_11 .def_4))) (let ((.def_13 (not .def_12))) (let ((.def_14 (not A20))) (let ((.def_15 (not A0))) (let ((.def_16 (or .def_15 .def_14))) (let ((.def_17 (not A2))) (let ((.def_18 (and .def_17 A8))) (let ((.def_19 (not .def_18))) (let ((.def_20 (or .def_19 .def_16))) (let ((.def_21 (not .def_20))) (let ((.def_22 (not A4))) (let ((.def_23 (or A0 .def_22))) (let ((.def_24 (or A23 A15))) (let ((.def_25 (not .def_24))) (let ((.def_26 (= .def_25 .def_23))) (let ((.def_27 (and .def_26 .def_21))) (let ((.def_28 (not .def_27))) (let ((.def_29 (or .def_28 .def_13))) (let ((.def_30 (not A21))) (let ((.def_31 (or .def_30 .def_8))) (let ((.def_32 (not .def_31))) (let ((.def_33 (not A12))) (let ((.def_34 (or A0 .def_33))) (let ((.def_35 (and .def_34 .def_32))) (let ((.def_36 (not .def_35))) (let ((.def_37 (= A20 A5))) (let ((.def_38 (or A22 .def_22))) (let ((.def_39 (or .def_38 .def_37))) (let ((.def_40 (or .def_39 .def_36))) (let ((.def_41 (not A15))) (let ((.def_42 (or .def_41 A17))) (let ((.def_43 (and .def_8 A19))) (let ((.def_44 (not .def_43))) (let ((.def_45 (= .def_44 .def_42))) (let ((.def_46 (and A7 A10))) (let ((.def_47 (not .def_46))) (let ((.def_48 (or A9 A24))) (let ((.def_49 (not .def_48))) (let ((.def_50 (or .def_49 .def_47))) (let ((.def_51 (not .def_50))) (let ((.def_52 (and .def_51 .def_45))) (let ((.def_53 (not .def_52))) (let ((.def_54 (= .def_53 .def_40))) (let ((.def_55 (not .def_54))) (let ((.def_56 (or .def_55 .def_29))) (let ((.def_57 (not .def_56))) (let ((.def_58 (= .def_41 .def_22))) (let ((.def_59 (or A15 A5))) (let ((.def_60 (= .def_59 .def_58))) (let ((.def_61 (not .def_60))) (let ((.def_62 (and A10 A12))) (let ((.def_63 (not A8))) (let ((.def_64 (and .def_15 .def_63))) (let ((.def_65 (and .def_64 .def_62))) (let ((.def_66 (not .def_65))) (let ((.def_67 (and .def_66 .def_61))) (let ((.def_68 (not .def_67))) (let ((.def_69 (or .def_17 A7))) (let ((.def_70 (not A14))) (let ((.def_71 (= A0 .def_70))) (let ((.def_72 (not .def_71))) (let ((.def_73 (or .def_72 .def_69))) (let ((.def_74 (not .def_73))) (let ((.def_75 (or A19 A13))) (let ((.def_76 (not .def_75))) (let ((.def_77 (= A2 A18))) (let ((.def_78 (not .def_77))) (let ((.def_79 (or .def_78 .def_76))) (let ((.def_80 (not .def_79))) (let ((.def_81 (or .def_80 .def_74))) (let ((.def_82 (not .def_81))) (let ((.def_83 (and .def_82 .def_68))) (let ((.def_84 (not A18))) (let ((.def_85 (and .def_84 .def_63))) (let ((.def_86 (not .def_38))) (let ((.def_87 (and .def_86 .def_85))) (let ((.def_88 (not .def_87))) (let ((.def_89 (and .def_8 A3))) (let ((.def_90 (not A11))) (let ((.def_91 (or .def_90 .def_17))) (let ((.def_92 (= .def_91 .def_89))) (let ((.def_93 (or .def_92 .def_88))) (let ((.def_94 (or A24 A4))) (let ((.def_95 (not .def_94))) (let ((.def_96 (not A7))) (let ((.def_97 (or A20 .def_96))) (let ((.def_98 (= .def_97 .def_95))) (let ((.def_99 (not A1))) (let ((.def_100 (and .def_99 .def_41))) (let ((.def_101 (not .def_100))) (let ((.def_102 (and .def_63 A17))) (let ((.def_103 (not .def_102))) (let ((.def_104 (= .def_103 .def_101))) (let ((.def_105 (or .def_104 .def_98))) (let ((.def_106 (not .def_105))) (let ((.def_107 (or .def_106 .def_93))) (let ((.def_108 (not .def_107))) (let ((.def_109 (or .def_108 .def_83))) (let ((.def_110 (and .def_109 .def_57))) (let ((.def_111 (not A16))) (let ((.def_112 (or .def_14 .def_111))) (let ((.def_113 (not .def_112))) (let ((.def_114 (and .def_30 A4))) (let ((.def_115 (or .def_114 .def_113))) (let ((.def_116 (not .def_115))) (let ((.def_117 (not A3))) (let ((.def_118 (and A10 .def_117))) (let ((.def_119 (or A3 .def_0))) (let ((.def_120 (not .def_119))) (let ((.def_121 (or .def_120 .def_118))) (let ((.def_122 (not .def_121))) (let ((.def_123 (or .def_122 .def_116))) (let ((.def_124 (and .def_14 .def_5))) (let ((.def_125 (= .def_5 A9))) (let ((.def_126 (and .def_125 .def_124))) (let ((.def_127 (or .def_8 .def_99))) (let ((.def_128 (not .def_127))) (let ((.def_129 (= .def_8 .def_70))) (let ((.def_130 (or .def_129 .def_128))) (let ((.def_131 (not .def_130))) (let ((.def_132 (or .def_131 .def_126))) (let ((.def_133 (= .def_132 .def_123))) (let ((.def_134 (not A6))) (let ((.def_135 (and .def_134 A4))) (let ((.def_136 (not .def_135))) (let ((.def_137 (or A9 .def_15))) (let ((.def_138 (= .def_137 .def_136))) (let ((.def_139 (or A3 .def_8))) (let ((.def_140 (= .def_17 .def_70))) (let ((.def_141 (not .def_140))) (let ((.def_142 (and .def_141 .def_139))) (let ((.def_143 (and .def_142 .def_138))) (let ((.def_144 (not A24))) (let ((.def_145 (and .def_144 A8))) (let ((.def_146 (not .def_145))) (let ((.def_147 (or .def_111 .def_99))) (let ((.def_148 (or .def_147 .def_146))) (let ((.def_149 (not A5))) (let ((.def_150 (and .def_90 .def_149))) (let ((.def_151 (not .def_150))) (let ((.def_152 (= .def_111 A24))) (let ((.def_153 (= .def_152 .def_151))) (let ((.def_154 (or .def_153 .def_148))) (let ((.def_155 (or .def_154 .def_143))) (let ((.def_156 (not .def_155))) (let ((.def_157 (or .def_156 .def_133))) (let ((.def_158 (and .def_8 A11))) (let ((.def_159 (not .def_158))) (let ((.def_160 (and .def_99 .def_17))) (let ((.def_161 (not .def_160))) (let ((.def_162 (or .def_161 .def_159))) (let ((.def_163 (not .def_162))) (let ((.def_164 (or A22 A19))) (let ((.def_165 (not .def_164))) (let ((.def_166 (or A9 .def_117))) (let ((.def_167 (and .def_166 .def_165))) (let ((.def_168 (not .def_167))) (let ((.def_169 (or .def_168 .def_163))) (let ((.def_170 (and A15 A17))) (let ((.def_171 (and .def_30 A6))) (let ((.def_172 (or .def_171 .def_170))) (let ((.def_173 (or .def_15 A9))) (let ((.def_174 (not .def_173))) (let ((.def_175 (or .def_149 A17))) (let ((.def_176 (not .def_175))) (let ((.def_177 (and .def_176 .def_174))) (let ((.def_178 (or .def_177 .def_172))) (let ((.def_179 (or .def_178 .def_169))) (let ((.def_180 (not .def_179))) (let ((.def_181 (or A6 A12))) (let ((.def_182 (not .def_181))) (let ((.def_183 (and .def_17 A12))) (let ((.def_184 (and .def_183 .def_182))) (let ((.def_185 (not .def_184))) (let ((.def_186 (and A16 A1))) (let ((.def_187 (not .def_186))) (let ((.def_188 (or A19 A0))) (let ((.def_189 (not .def_188))) (let ((.def_190 (or .def_189 .def_187))) (let ((.def_191 (or .def_190 .def_185))) (let ((.def_192 (not .def_191))) (let ((.def_193 (and .def_8 A9))) (let ((.def_194 (not .def_193))) (let ((.def_195 (not A19))) (let ((.def_196 (and .def_111 .def_195))) (let ((.def_197 (not .def_196))) (let ((.def_198 (and .def_197 .def_194))) (let ((.def_199 (not .def_198))) (let ((.def_200 (or .def_99 A21))) (let ((.def_201 (not A23))) (let ((.def_202 (and .def_195 .def_201))) (let ((.def_203 (and .def_202 .def_200))) (let ((.def_204 (and .def_203 .def_199))) (let ((.def_205 (and .def_204 .def_192))) (let ((.def_206 (or .def_205 .def_180))) (let ((.def_207 (or .def_206 .def_157))) (let ((.def_208 (not .def_207))) (let ((.def_209 (and .def_208 .def_110))) .def_209)))))))))))))))))))))))))))))))))))))))))))))))))))))))))))))))))))))))))))))))))))))))))))))))))))))))))))))))))))))))))))))))))))))))))))))))))))))))))))))))))))))))))))))))))))))))))))))))))))))))))))))))))))
(check-sat)
